1 1769 10
2 1473 10
7 1371 10
457 1355 9
659 1338 10



1 1885 10
2 1598 10
3 1527 10
4 1518 10
6 1495 10
7 1468 10
11 1460 10
25 1458 10
28 1432 10
29 1404 10
70 1386 10
116 1380 9
183 1361 10
375 1354 9
426 1295 9



1 1795 10
2 1549 10
3 1520 10
4 1488 10
5 1486 10
7 1468 10
9 1459 10
14 1416 10
16 1412 10
20 1395 10
21 1375 10
48 1373 10
70 1345 10
96 1318 9



1 1910 10
2 1560 10
3 1502 10
4 1495 10
5 1459 10
9 1419 10
11 1392 10
19 1389 10
57 1374 10
129 1339 10
142 1318 10
887 1311 9



1 1810 10
2 1526 10
3 1517 10
4 1420 10
6 1416 10
9 1371 10
239 1346 10



